NAME : B-n66-k9.755269.tour
COMMENT : Length = 755269
COMMENT : Found by LKH [Keld Helsgaun] Sun Dec 17 19:12:07 2017
TYPE : TOUR
DIMENSION : 74
TOUR_SECTION
1
7
3
11
27
47
64
67
8
31
38
49
26
60
45
65
69
2
51
29
48
62
17
63
68
53
21
54
55
19
24
73
25
13
50
10
40
30
4
16
61
5
70
33
59
34
66
9
41
74
46
32
14
57
23
44
35
52
71
42
18
56
12
58
39
20
36
72
43
28
6
15
22
37
-1
EOF
